333 339 338 337 336 335 334 283 284 285 286 287 280 281 282 279 278 277 276 288 289 290 275 274 273 292 291 293 294 295 296 270 268 269 272 271 267 266 265 264 263 262 261 260 259 258 299 298 297 321 320 319 317 318 305 306 304 303 307 506 507 508 302 301 300 257 256 255 253 254 252 251 250 249 248 241 242 243 244 245 247 246 238 239 240 237 236 235 234 232 233 530 529 528 527 512 511 510 509 513 514 515 516 517 520 521 522 523 526 525 524 493 492 491 490 486 485 484 536 535 487 534 488 489 531 532 533 231 230 229 228 227 189 225 226 190 191 192 193 219 218 220 221 222 224 223 217 216 215 214 213 212 211 210 209 205 206 207 208 203 204 202 201 200 199 198 197 196 195 194 184 183 185 186 188 187 182 181 180 179 178 177 176 540 538 539 537 483 482 481 480 479 478 477 476 475 473 474 570 569 568 567 566 565 564 563 562 561 560 549 548 545 546 547 544 543 541 542 107 109 108 173 174 175 172 170 171 169 168 163 167 166 164 165 154 155 156 159 160 162 161 113 112 111 110 114 115 116 128 129 130 131 132 133 134 135 136 144 143 142 146 145 158 157 153 147 148 152 149 150 151 141 140 139 137 138 127 126 125 124 69 70 68 67 66 65 75 74 73 72 71 123 122 117 121 120 119 118 106 105 104 103 98 96 95 97 94 93 92 90 85 86 87 81 80 79 62 78 88 89 77 76 64 63 61 60 59 58 57 82 83 84 51 50 52 53 56 55 54 49 48 47 45 46 91 555 554 553 552 99 100 102 101 551 550 559 558 557 556 44 43 42 39 41 40 35 34 33 38 37 36 32 30 31 29 28 27 26 25 24 21 22 23 12 13 20 19 16 15 14 11 10 9 18 17 8 7 6 5 4 3 2 1 0 573 572 571 466 467 468 469 470 471 472 494 495 518 519 497 496 465 464 463 462 461 460 459 458 457 456 455 454 438 437 436 435 434 433 432 430 429 428 427 426 420 421 422 423 424 425 382 386 387 385 383 384 410 418 419 417 411 412 356 355 354 353 413 414 416 415 352 351 350 347 348 349 357 358 359 360 401 402 403 404 409 408 407 406 405 400 399 397 398 372 371 396 395 394 393 375 376 377 378 379 380 392 391 388 389 390 381 431 445 444 443 439 442 446 447 448 449 450 441 440 453 452 499 500 501 498 502 503 504 505 308 309 310 311 451 312 313 316 314 315 374 373 322 323 324 325 326 327 328 329 366 367 370 369 368 365 364 363 361 362 346 345 344 343 342 341 340 330 331 332